c *********************************
c * Circuit generated by BenCGen
c *
c * CarrySkipAdder_101_101_101_InOut_G4T
c *
c * Ports with 1 gate(s): 29
c * Ports with 2 gate(s): 558
c * Ports with 4 gate(s): 25
c * Total gates: 612
c *********************************
p cnf 814 2059
1 306 0
-1 -306 0
1 -305 0
306 -305 0
-1 -306 305 0
1 102 -309 0
-1 102 309 0
1 -102 309 0
-1 -102 -309 0
309 305 -203 0
-309 305 203 0
309 -305 203 0
-309 -305 -203 0
305 -310 0
309 -310 0
-305 -309 310 0
102 -311 0
1 -311 0
-102 -1 311 0
-310 308 0
-311 308 0
310 311 -308 0
2 103 -313 0
-2 103 313 0
2 -103 313 0
-2 -103 -313 0
313 308 -204 0
-313 308 204 0
313 -308 204 0
-313 -308 -204 0
308 -314 0
313 -314 0
-308 -313 314 0
103 -315 0
2 -315 0
-103 -2 315 0
-314 312 0
-315 312 0
314 315 -312 0
3 104 -317 0
-3 104 317 0
3 -104 317 0
-3 -104 -317 0
317 312 -205 0
-317 312 205 0
317 -312 205 0
-317 -312 -205 0
312 -318 0
317 -318 0
-312 -317 318 0
104 -319 0
3 -319 0
-104 -3 319 0
-318 316 0
-319 316 0
318 319 -316 0
4 105 -320 0
-4 105 320 0
4 -105 320 0
-4 -105 -320 0
320 316 -206 0
-320 316 206 0
320 -316 206 0
-320 -316 -206 0
316 -321 0
320 -321 0
-316 -320 321 0
105 -322 0
4 -322 0
-105 -4 322 0
-321 307 0
-322 307 0
321 322 -307 0
309 -323 0
313 -323 0
317 -323 0
320 -323 0
-309 -313 -317 -320 323 0
322 -324 0
-322 324 0
305 -325 0
323 -325 0
-305 -323 325 0
-325 326 0
-307 326 0
325 307 -326 0
5 106 -329 0
-5 106 329 0
5 -106 329 0
-5 -106 -329 0
329 326 -207 0
-329 326 207 0
329 -326 207 0
-329 -326 -207 0
326 -330 0
329 -330 0
-326 -329 330 0
106 -331 0
5 -331 0
-106 -5 331 0
-330 328 0
-331 328 0
330 331 -328 0
6 107 -333 0
-6 107 333 0
6 -107 333 0
-6 -107 -333 0
333 328 -208 0
-333 328 208 0
333 -328 208 0
-333 -328 -208 0
328 -334 0
333 -334 0
-328 -333 334 0
107 -335 0
6 -335 0
-107 -6 335 0
-334 332 0
-335 332 0
334 335 -332 0
7 108 -337 0
-7 108 337 0
7 -108 337 0
-7 -108 -337 0
337 332 -209 0
-337 332 209 0
337 -332 209 0
-337 -332 -209 0
332 -338 0
337 -338 0
-332 -337 338 0
108 -339 0
7 -339 0
-108 -7 339 0
-338 336 0
-339 336 0
338 339 -336 0
8 109 -340 0
-8 109 340 0
8 -109 340 0
-8 -109 -340 0
340 336 -210 0
-340 336 210 0
340 -336 210 0
-340 -336 -210 0
336 -341 0
340 -341 0
-336 -340 341 0
109 -342 0
8 -342 0
-109 -8 342 0
-341 327 0
-342 327 0
341 342 -327 0
329 -343 0
333 -343 0
337 -343 0
340 -343 0
-329 -333 -337 -340 343 0
342 -344 0
-342 344 0
326 -345 0
343 -345 0
-326 -343 345 0
-345 346 0
-327 346 0
345 327 -346 0
9 110 -349 0
-9 110 349 0
9 -110 349 0
-9 -110 -349 0
349 346 -211 0
-349 346 211 0
349 -346 211 0
-349 -346 -211 0
346 -350 0
349 -350 0
-346 -349 350 0
110 -351 0
9 -351 0
-110 -9 351 0
-350 348 0
-351 348 0
350 351 -348 0
10 111 -353 0
-10 111 353 0
10 -111 353 0
-10 -111 -353 0
353 348 -212 0
-353 348 212 0
353 -348 212 0
-353 -348 -212 0
348 -354 0
353 -354 0
-348 -353 354 0
111 -355 0
10 -355 0
-111 -10 355 0
-354 352 0
-355 352 0
354 355 -352 0
11 112 -357 0
-11 112 357 0
11 -112 357 0
-11 -112 -357 0
357 352 -213 0
-357 352 213 0
357 -352 213 0
-357 -352 -213 0
352 -358 0
357 -358 0
-352 -357 358 0
112 -359 0
11 -359 0
-112 -11 359 0
-358 356 0
-359 356 0
358 359 -356 0
12 113 -360 0
-12 113 360 0
12 -113 360 0
-12 -113 -360 0
360 356 -214 0
-360 356 214 0
360 -356 214 0
-360 -356 -214 0
356 -361 0
360 -361 0
-356 -360 361 0
113 -362 0
12 -362 0
-113 -12 362 0
-361 347 0
-362 347 0
361 362 -347 0
349 -363 0
353 -363 0
357 -363 0
360 -363 0
-349 -353 -357 -360 363 0
362 -364 0
-362 364 0
346 -365 0
363 -365 0
-346 -363 365 0
-365 366 0
-347 366 0
365 347 -366 0
13 114 -369 0
-13 114 369 0
13 -114 369 0
-13 -114 -369 0
369 366 -215 0
-369 366 215 0
369 -366 215 0
-369 -366 -215 0
366 -370 0
369 -370 0
-366 -369 370 0
114 -371 0
13 -371 0
-114 -13 371 0
-370 368 0
-371 368 0
370 371 -368 0
14 115 -373 0
-14 115 373 0
14 -115 373 0
-14 -115 -373 0
373 368 -216 0
-373 368 216 0
373 -368 216 0
-373 -368 -216 0
368 -374 0
373 -374 0
-368 -373 374 0
115 -375 0
14 -375 0
-115 -14 375 0
-374 372 0
-375 372 0
374 375 -372 0
15 116 -377 0
-15 116 377 0
15 -116 377 0
-15 -116 -377 0
377 372 -217 0
-377 372 217 0
377 -372 217 0
-377 -372 -217 0
372 -378 0
377 -378 0
-372 -377 378 0
116 -379 0
15 -379 0
-116 -15 379 0
-378 376 0
-379 376 0
378 379 -376 0
16 117 -380 0
-16 117 380 0
16 -117 380 0
-16 -117 -380 0
380 376 -218 0
-380 376 218 0
380 -376 218 0
-380 -376 -218 0
376 -381 0
380 -381 0
-376 -380 381 0
117 -382 0
16 -382 0
-117 -16 382 0
-381 367 0
-382 367 0
381 382 -367 0
369 -383 0
373 -383 0
377 -383 0
380 -383 0
-369 -373 -377 -380 383 0
382 -384 0
-382 384 0
366 -385 0
383 -385 0
-366 -383 385 0
-385 386 0
-367 386 0
385 367 -386 0
17 118 -389 0
-17 118 389 0
17 -118 389 0
-17 -118 -389 0
389 386 -219 0
-389 386 219 0
389 -386 219 0
-389 -386 -219 0
386 -390 0
389 -390 0
-386 -389 390 0
118 -391 0
17 -391 0
-118 -17 391 0
-390 388 0
-391 388 0
390 391 -388 0
18 119 -393 0
-18 119 393 0
18 -119 393 0
-18 -119 -393 0
393 388 -220 0
-393 388 220 0
393 -388 220 0
-393 -388 -220 0
388 -394 0
393 -394 0
-388 -393 394 0
119 -395 0
18 -395 0
-119 -18 395 0
-394 392 0
-395 392 0
394 395 -392 0
19 120 -397 0
-19 120 397 0
19 -120 397 0
-19 -120 -397 0
397 392 -221 0
-397 392 221 0
397 -392 221 0
-397 -392 -221 0
392 -398 0
397 -398 0
-392 -397 398 0
120 -399 0
19 -399 0
-120 -19 399 0
-398 396 0
-399 396 0
398 399 -396 0
20 121 -400 0
-20 121 400 0
20 -121 400 0
-20 -121 -400 0
400 396 -222 0
-400 396 222 0
400 -396 222 0
-400 -396 -222 0
396 -401 0
400 -401 0
-396 -400 401 0
121 -402 0
20 -402 0
-121 -20 402 0
-401 387 0
-402 387 0
401 402 -387 0
389 -403 0
393 -403 0
397 -403 0
400 -403 0
-389 -393 -397 -400 403 0
402 -404 0
-402 404 0
386 -405 0
403 -405 0
-386 -403 405 0
-405 406 0
-387 406 0
405 387 -406 0
21 122 -409 0
-21 122 409 0
21 -122 409 0
-21 -122 -409 0
409 406 -223 0
-409 406 223 0
409 -406 223 0
-409 -406 -223 0
406 -410 0
409 -410 0
-406 -409 410 0
122 -411 0
21 -411 0
-122 -21 411 0
-410 408 0
-411 408 0
410 411 -408 0
22 123 -413 0
-22 123 413 0
22 -123 413 0
-22 -123 -413 0
413 408 -224 0
-413 408 224 0
413 -408 224 0
-413 -408 -224 0
408 -414 0
413 -414 0
-408 -413 414 0
123 -415 0
22 -415 0
-123 -22 415 0
-414 412 0
-415 412 0
414 415 -412 0
23 124 -417 0
-23 124 417 0
23 -124 417 0
-23 -124 -417 0
417 412 -225 0
-417 412 225 0
417 -412 225 0
-417 -412 -225 0
412 -418 0
417 -418 0
-412 -417 418 0
124 -419 0
23 -419 0
-124 -23 419 0
-418 416 0
-419 416 0
418 419 -416 0
24 125 -420 0
-24 125 420 0
24 -125 420 0
-24 -125 -420 0
420 416 -226 0
-420 416 226 0
420 -416 226 0
-420 -416 -226 0
416 -421 0
420 -421 0
-416 -420 421 0
125 -422 0
24 -422 0
-125 -24 422 0
-421 407 0
-422 407 0
421 422 -407 0
409 -423 0
413 -423 0
417 -423 0
420 -423 0
-409 -413 -417 -420 423 0
422 -424 0
-422 424 0
406 -425 0
423 -425 0
-406 -423 425 0
-425 426 0
-407 426 0
425 407 -426 0
25 126 -429 0
-25 126 429 0
25 -126 429 0
-25 -126 -429 0
429 426 -227 0
-429 426 227 0
429 -426 227 0
-429 -426 -227 0
426 -430 0
429 -430 0
-426 -429 430 0
126 -431 0
25 -431 0
-126 -25 431 0
-430 428 0
-431 428 0
430 431 -428 0
26 127 -433 0
-26 127 433 0
26 -127 433 0
-26 -127 -433 0
433 428 -228 0
-433 428 228 0
433 -428 228 0
-433 -428 -228 0
428 -434 0
433 -434 0
-428 -433 434 0
127 -435 0
26 -435 0
-127 -26 435 0
-434 432 0
-435 432 0
434 435 -432 0
27 128 -437 0
-27 128 437 0
27 -128 437 0
-27 -128 -437 0
437 432 -229 0
-437 432 229 0
437 -432 229 0
-437 -432 -229 0
432 -438 0
437 -438 0
-432 -437 438 0
128 -439 0
27 -439 0
-128 -27 439 0
-438 436 0
-439 436 0
438 439 -436 0
28 129 -440 0
-28 129 440 0
28 -129 440 0
-28 -129 -440 0
440 436 -230 0
-440 436 230 0
440 -436 230 0
-440 -436 -230 0
436 -441 0
440 -441 0
-436 -440 441 0
129 -442 0
28 -442 0
-129 -28 442 0
-441 427 0
-442 427 0
441 442 -427 0
429 -443 0
433 -443 0
437 -443 0
440 -443 0
-429 -433 -437 -440 443 0
442 -444 0
-442 444 0
426 -445 0
443 -445 0
-426 -443 445 0
-445 446 0
-427 446 0
445 427 -446 0
29 130 -449 0
-29 130 449 0
29 -130 449 0
-29 -130 -449 0
449 446 -231 0
-449 446 231 0
449 -446 231 0
-449 -446 -231 0
446 -450 0
449 -450 0
-446 -449 450 0
130 -451 0
29 -451 0
-130 -29 451 0
-450 448 0
-451 448 0
450 451 -448 0
30 131 -453 0
-30 131 453 0
30 -131 453 0
-30 -131 -453 0
453 448 -232 0
-453 448 232 0
453 -448 232 0
-453 -448 -232 0
448 -454 0
453 -454 0
-448 -453 454 0
131 -455 0
30 -455 0
-131 -30 455 0
-454 452 0
-455 452 0
454 455 -452 0
31 132 -457 0
-31 132 457 0
31 -132 457 0
-31 -132 -457 0
457 452 -233 0
-457 452 233 0
457 -452 233 0
-457 -452 -233 0
452 -458 0
457 -458 0
-452 -457 458 0
132 -459 0
31 -459 0
-132 -31 459 0
-458 456 0
-459 456 0
458 459 -456 0
32 133 -460 0
-32 133 460 0
32 -133 460 0
-32 -133 -460 0
460 456 -234 0
-460 456 234 0
460 -456 234 0
-460 -456 -234 0
456 -461 0
460 -461 0
-456 -460 461 0
133 -462 0
32 -462 0
-133 -32 462 0
-461 447 0
-462 447 0
461 462 -447 0
449 -463 0
453 -463 0
457 -463 0
460 -463 0
-449 -453 -457 -460 463 0
462 -464 0
-462 464 0
446 -465 0
463 -465 0
-446 -463 465 0
-465 466 0
-447 466 0
465 447 -466 0
33 134 -469 0
-33 134 469 0
33 -134 469 0
-33 -134 -469 0
469 466 -235 0
-469 466 235 0
469 -466 235 0
-469 -466 -235 0
466 -470 0
469 -470 0
-466 -469 470 0
134 -471 0
33 -471 0
-134 -33 471 0
-470 468 0
-471 468 0
470 471 -468 0
34 135 -473 0
-34 135 473 0
34 -135 473 0
-34 -135 -473 0
473 468 -236 0
-473 468 236 0
473 -468 236 0
-473 -468 -236 0
468 -474 0
473 -474 0
-468 -473 474 0
135 -475 0
34 -475 0
-135 -34 475 0
-474 472 0
-475 472 0
474 475 -472 0
35 136 -477 0
-35 136 477 0
35 -136 477 0
-35 -136 -477 0
477 472 -237 0
-477 472 237 0
477 -472 237 0
-477 -472 -237 0
472 -478 0
477 -478 0
-472 -477 478 0
136 -479 0
35 -479 0
-136 -35 479 0
-478 476 0
-479 476 0
478 479 -476 0
36 137 -480 0
-36 137 480 0
36 -137 480 0
-36 -137 -480 0
480 476 -238 0
-480 476 238 0
480 -476 238 0
-480 -476 -238 0
476 -481 0
480 -481 0
-476 -480 481 0
137 -482 0
36 -482 0
-137 -36 482 0
-481 467 0
-482 467 0
481 482 -467 0
469 -483 0
473 -483 0
477 -483 0
480 -483 0
-469 -473 -477 -480 483 0
482 -484 0
-482 484 0
466 -485 0
483 -485 0
-466 -483 485 0
-485 486 0
-467 486 0
485 467 -486 0
37 138 -489 0
-37 138 489 0
37 -138 489 0
-37 -138 -489 0
489 486 -239 0
-489 486 239 0
489 -486 239 0
-489 -486 -239 0
486 -490 0
489 -490 0
-486 -489 490 0
138 -491 0
37 -491 0
-138 -37 491 0
-490 488 0
-491 488 0
490 491 -488 0
38 139 -493 0
-38 139 493 0
38 -139 493 0
-38 -139 -493 0
493 488 -240 0
-493 488 240 0
493 -488 240 0
-493 -488 -240 0
488 -494 0
493 -494 0
-488 -493 494 0
139 -495 0
38 -495 0
-139 -38 495 0
-494 492 0
-495 492 0
494 495 -492 0
39 140 -497 0
-39 140 497 0
39 -140 497 0
-39 -140 -497 0
497 492 -241 0
-497 492 241 0
497 -492 241 0
-497 -492 -241 0
492 -498 0
497 -498 0
-492 -497 498 0
140 -499 0
39 -499 0
-140 -39 499 0
-498 496 0
-499 496 0
498 499 -496 0
40 141 -500 0
-40 141 500 0
40 -141 500 0
-40 -141 -500 0
500 496 -242 0
-500 496 242 0
500 -496 242 0
-500 -496 -242 0
496 -501 0
500 -501 0
-496 -500 501 0
141 -502 0
40 -502 0
-141 -40 502 0
-501 487 0
-502 487 0
501 502 -487 0
489 -503 0
493 -503 0
497 -503 0
500 -503 0
-489 -493 -497 -500 503 0
502 -504 0
-502 504 0
486 -505 0
503 -505 0
-486 -503 505 0
-505 506 0
-487 506 0
505 487 -506 0
41 142 -509 0
-41 142 509 0
41 -142 509 0
-41 -142 -509 0
509 506 -243 0
-509 506 243 0
509 -506 243 0
-509 -506 -243 0
506 -510 0
509 -510 0
-506 -509 510 0
142 -511 0
41 -511 0
-142 -41 511 0
-510 508 0
-511 508 0
510 511 -508 0
42 143 -513 0
-42 143 513 0
42 -143 513 0
-42 -143 -513 0
513 508 -244 0
-513 508 244 0
513 -508 244 0
-513 -508 -244 0
508 -514 0
513 -514 0
-508 -513 514 0
143 -515 0
42 -515 0
-143 -42 515 0
-514 512 0
-515 512 0
514 515 -512 0
43 144 -517 0
-43 144 517 0
43 -144 517 0
-43 -144 -517 0
517 512 -245 0
-517 512 245 0
517 -512 245 0
-517 -512 -245 0
512 -518 0
517 -518 0
-512 -517 518 0
144 -519 0
43 -519 0
-144 -43 519 0
-518 516 0
-519 516 0
518 519 -516 0
44 145 -520 0
-44 145 520 0
44 -145 520 0
-44 -145 -520 0
520 516 -246 0
-520 516 246 0
520 -516 246 0
-520 -516 -246 0
516 -521 0
520 -521 0
-516 -520 521 0
145 -522 0
44 -522 0
-145 -44 522 0
-521 507 0
-522 507 0
521 522 -507 0
509 -523 0
513 -523 0
517 -523 0
520 -523 0
-509 -513 -517 -520 523 0
522 -524 0
-522 524 0
506 -525 0
523 -525 0
-506 -523 525 0
-525 526 0
-507 526 0
525 507 -526 0
45 146 -529 0
-45 146 529 0
45 -146 529 0
-45 -146 -529 0
529 526 -247 0
-529 526 247 0
529 -526 247 0
-529 -526 -247 0
526 -530 0
529 -530 0
-526 -529 530 0
146 -531 0
45 -531 0
-146 -45 531 0
-530 528 0
-531 528 0
530 531 -528 0
46 147 -533 0
-46 147 533 0
46 -147 533 0
-46 -147 -533 0
533 528 -248 0
-533 528 248 0
533 -528 248 0
-533 -528 -248 0
528 -534 0
533 -534 0
-528 -533 534 0
147 -535 0
46 -535 0
-147 -46 535 0
-534 532 0
-535 532 0
534 535 -532 0
47 148 -537 0
-47 148 537 0
47 -148 537 0
-47 -148 -537 0
537 532 -249 0
-537 532 249 0
537 -532 249 0
-537 -532 -249 0
532 -538 0
537 -538 0
-532 -537 538 0
148 -539 0
47 -539 0
-148 -47 539 0
-538 536 0
-539 536 0
538 539 -536 0
48 149 -540 0
-48 149 540 0
48 -149 540 0
-48 -149 -540 0
540 536 -250 0
-540 536 250 0
540 -536 250 0
-540 -536 -250 0
536 -541 0
540 -541 0
-536 -540 541 0
149 -542 0
48 -542 0
-149 -48 542 0
-541 527 0
-542 527 0
541 542 -527 0
529 -543 0
533 -543 0
537 -543 0
540 -543 0
-529 -533 -537 -540 543 0
542 -544 0
-542 544 0
526 -545 0
543 -545 0
-526 -543 545 0
-545 546 0
-527 546 0
545 527 -546 0
49 150 -549 0
-49 150 549 0
49 -150 549 0
-49 -150 -549 0
549 546 -251 0
-549 546 251 0
549 -546 251 0
-549 -546 -251 0
546 -550 0
549 -550 0
-546 -549 550 0
150 -551 0
49 -551 0
-150 -49 551 0
-550 548 0
-551 548 0
550 551 -548 0
50 151 -553 0
-50 151 553 0
50 -151 553 0
-50 -151 -553 0
553 548 -252 0
-553 548 252 0
553 -548 252 0
-553 -548 -252 0
548 -554 0
553 -554 0
-548 -553 554 0
151 -555 0
50 -555 0
-151 -50 555 0
-554 552 0
-555 552 0
554 555 -552 0
51 152 -557 0
-51 152 557 0
51 -152 557 0
-51 -152 -557 0
557 552 -253 0
-557 552 253 0
557 -552 253 0
-557 -552 -253 0
552 -558 0
557 -558 0
-552 -557 558 0
152 -559 0
51 -559 0
-152 -51 559 0
-558 556 0
-559 556 0
558 559 -556 0
52 153 -560 0
-52 153 560 0
52 -153 560 0
-52 -153 -560 0
560 556 -254 0
-560 556 254 0
560 -556 254 0
-560 -556 -254 0
556 -561 0
560 -561 0
-556 -560 561 0
153 -562 0
52 -562 0
-153 -52 562 0
-561 547 0
-562 547 0
561 562 -547 0
549 -563 0
553 -563 0
557 -563 0
560 -563 0
-549 -553 -557 -560 563 0
562 -564 0
-562 564 0
546 -565 0
563 -565 0
-546 -563 565 0
-565 566 0
-547 566 0
565 547 -566 0
53 154 -569 0
-53 154 569 0
53 -154 569 0
-53 -154 -569 0
569 566 -255 0
-569 566 255 0
569 -566 255 0
-569 -566 -255 0
566 -570 0
569 -570 0
-566 -569 570 0
154 -571 0
53 -571 0
-154 -53 571 0
-570 568 0
-571 568 0
570 571 -568 0
54 155 -573 0
-54 155 573 0
54 -155 573 0
-54 -155 -573 0
573 568 -256 0
-573 568 256 0
573 -568 256 0
-573 -568 -256 0
568 -574 0
573 -574 0
-568 -573 574 0
155 -575 0
54 -575 0
-155 -54 575 0
-574 572 0
-575 572 0
574 575 -572 0
55 156 -577 0
-55 156 577 0
55 -156 577 0
-55 -156 -577 0
577 572 -257 0
-577 572 257 0
577 -572 257 0
-577 -572 -257 0
572 -578 0
577 -578 0
-572 -577 578 0
156 -579 0
55 -579 0
-156 -55 579 0
-578 576 0
-579 576 0
578 579 -576 0
56 157 -580 0
-56 157 580 0
56 -157 580 0
-56 -157 -580 0
580 576 -258 0
-580 576 258 0
580 -576 258 0
-580 -576 -258 0
576 -581 0
580 -581 0
-576 -580 581 0
157 -582 0
56 -582 0
-157 -56 582 0
-581 567 0
-582 567 0
581 582 -567 0
569 -583 0
573 -583 0
577 -583 0
580 -583 0
-569 -573 -577 -580 583 0
582 -584 0
-582 584 0
566 -585 0
583 -585 0
-566 -583 585 0
-585 586 0
-567 586 0
585 567 -586 0
57 158 -589 0
-57 158 589 0
57 -158 589 0
-57 -158 -589 0
589 586 -259 0
-589 586 259 0
589 -586 259 0
-589 -586 -259 0
586 -590 0
589 -590 0
-586 -589 590 0
158 -591 0
57 -591 0
-158 -57 591 0
-590 588 0
-591 588 0
590 591 -588 0
58 159 -593 0
-58 159 593 0
58 -159 593 0
-58 -159 -593 0
593 588 -260 0
-593 588 260 0
593 -588 260 0
-593 -588 -260 0
588 -594 0
593 -594 0
-588 -593 594 0
159 -595 0
58 -595 0
-159 -58 595 0
-594 592 0
-595 592 0
594 595 -592 0
59 160 -597 0
-59 160 597 0
59 -160 597 0
-59 -160 -597 0
597 592 -261 0
-597 592 261 0
597 -592 261 0
-597 -592 -261 0
592 -598 0
597 -598 0
-592 -597 598 0
160 -599 0
59 -599 0
-160 -59 599 0
-598 596 0
-599 596 0
598 599 -596 0
60 161 -600 0
-60 161 600 0
60 -161 600 0
-60 -161 -600 0
600 596 -262 0
-600 596 262 0
600 -596 262 0
-600 -596 -262 0
596 -601 0
600 -601 0
-596 -600 601 0
161 -602 0
60 -602 0
-161 -60 602 0
-601 587 0
-602 587 0
601 602 -587 0
589 -603 0
593 -603 0
597 -603 0
600 -603 0
-589 -593 -597 -600 603 0
602 -604 0
-602 604 0
586 -605 0
603 -605 0
-586 -603 605 0
-605 606 0
-587 606 0
605 587 -606 0
61 162 -609 0
-61 162 609 0
61 -162 609 0
-61 -162 -609 0
609 606 -263 0
-609 606 263 0
609 -606 263 0
-609 -606 -263 0
606 -610 0
609 -610 0
-606 -609 610 0
162 -611 0
61 -611 0
-162 -61 611 0
-610 608 0
-611 608 0
610 611 -608 0
62 163 -613 0
-62 163 613 0
62 -163 613 0
-62 -163 -613 0
613 608 -264 0
-613 608 264 0
613 -608 264 0
-613 -608 -264 0
608 -614 0
613 -614 0
-608 -613 614 0
163 -615 0
62 -615 0
-163 -62 615 0
-614 612 0
-615 612 0
614 615 -612 0
63 164 -617 0
-63 164 617 0
63 -164 617 0
-63 -164 -617 0
617 612 -265 0
-617 612 265 0
617 -612 265 0
-617 -612 -265 0
612 -618 0
617 -618 0
-612 -617 618 0
164 -619 0
63 -619 0
-164 -63 619 0
-618 616 0
-619 616 0
618 619 -616 0
64 165 -620 0
-64 165 620 0
64 -165 620 0
-64 -165 -620 0
620 616 -266 0
-620 616 266 0
620 -616 266 0
-620 -616 -266 0
616 -621 0
620 -621 0
-616 -620 621 0
165 -622 0
64 -622 0
-165 -64 622 0
-621 607 0
-622 607 0
621 622 -607 0
609 -623 0
613 -623 0
617 -623 0
620 -623 0
-609 -613 -617 -620 623 0
622 -624 0
-622 624 0
606 -625 0
623 -625 0
-606 -623 625 0
-625 626 0
-607 626 0
625 607 -626 0
65 166 -629 0
-65 166 629 0
65 -166 629 0
-65 -166 -629 0
629 626 -267 0
-629 626 267 0
629 -626 267 0
-629 -626 -267 0
626 -630 0
629 -630 0
-626 -629 630 0
166 -631 0
65 -631 0
-166 -65 631 0
-630 628 0
-631 628 0
630 631 -628 0
66 167 -633 0
-66 167 633 0
66 -167 633 0
-66 -167 -633 0
633 628 -268 0
-633 628 268 0
633 -628 268 0
-633 -628 -268 0
628 -634 0
633 -634 0
-628 -633 634 0
167 -635 0
66 -635 0
-167 -66 635 0
-634 632 0
-635 632 0
634 635 -632 0
67 168 -637 0
-67 168 637 0
67 -168 637 0
-67 -168 -637 0
637 632 -269 0
-637 632 269 0
637 -632 269 0
-637 -632 -269 0
632 -638 0
637 -638 0
-632 -637 638 0
168 -639 0
67 -639 0
-168 -67 639 0
-638 636 0
-639 636 0
638 639 -636 0
68 169 -640 0
-68 169 640 0
68 -169 640 0
-68 -169 -640 0
640 636 -270 0
-640 636 270 0
640 -636 270 0
-640 -636 -270 0
636 -641 0
640 -641 0
-636 -640 641 0
169 -642 0
68 -642 0
-169 -68 642 0
-641 627 0
-642 627 0
641 642 -627 0
629 -643 0
633 -643 0
637 -643 0
640 -643 0
-629 -633 -637 -640 643 0
642 -644 0
-642 644 0
626 -645 0
643 -645 0
-626 -643 645 0
-645 646 0
-627 646 0
645 627 -646 0
69 170 -649 0
-69 170 649 0
69 -170 649 0
-69 -170 -649 0
649 646 -271 0
-649 646 271 0
649 -646 271 0
-649 -646 -271 0
646 -650 0
649 -650 0
-646 -649 650 0
170 -651 0
69 -651 0
-170 -69 651 0
-650 648 0
-651 648 0
650 651 -648 0
70 171 -653 0
-70 171 653 0
70 -171 653 0
-70 -171 -653 0
653 648 -272 0
-653 648 272 0
653 -648 272 0
-653 -648 -272 0
648 -654 0
653 -654 0
-648 -653 654 0
171 -655 0
70 -655 0
-171 -70 655 0
-654 652 0
-655 652 0
654 655 -652 0
71 172 -657 0
-71 172 657 0
71 -172 657 0
-71 -172 -657 0
657 652 -273 0
-657 652 273 0
657 -652 273 0
-657 -652 -273 0
652 -658 0
657 -658 0
-652 -657 658 0
172 -659 0
71 -659 0
-172 -71 659 0
-658 656 0
-659 656 0
658 659 -656 0
72 173 -660 0
-72 173 660 0
72 -173 660 0
-72 -173 -660 0
660 656 -274 0
-660 656 274 0
660 -656 274 0
-660 -656 -274 0
656 -661 0
660 -661 0
-656 -660 661 0
173 -662 0
72 -662 0
-173 -72 662 0
-661 647 0
-662 647 0
661 662 -647 0
649 -663 0
653 -663 0
657 -663 0
660 -663 0
-649 -653 -657 -660 663 0
662 -664 0
-662 664 0
646 -665 0
663 -665 0
-646 -663 665 0
-665 666 0
-647 666 0
665 647 -666 0
73 174 -669 0
-73 174 669 0
73 -174 669 0
-73 -174 -669 0
669 666 -275 0
-669 666 275 0
669 -666 275 0
-669 -666 -275 0
666 -670 0
669 -670 0
-666 -669 670 0
174 -671 0
73 -671 0
-174 -73 671 0
-670 668 0
-671 668 0
670 671 -668 0
74 175 -673 0
-74 175 673 0
74 -175 673 0
-74 -175 -673 0
673 668 -276 0
-673 668 276 0
673 -668 276 0
-673 -668 -276 0
668 -674 0
673 -674 0
-668 -673 674 0
175 -675 0
74 -675 0
-175 -74 675 0
-674 672 0
-675 672 0
674 675 -672 0
75 176 -677 0
-75 176 677 0
75 -176 677 0
-75 -176 -677 0
677 672 -277 0
-677 672 277 0
677 -672 277 0
-677 -672 -277 0
672 -678 0
677 -678 0
-672 -677 678 0
176 -679 0
75 -679 0
-176 -75 679 0
-678 676 0
-679 676 0
678 679 -676 0
76 177 -680 0
-76 177 680 0
76 -177 680 0
-76 -177 -680 0
680 676 -278 0
-680 676 278 0
680 -676 278 0
-680 -676 -278 0
676 -681 0
680 -681 0
-676 -680 681 0
177 -682 0
76 -682 0
-177 -76 682 0
-681 667 0
-682 667 0
681 682 -667 0
669 -683 0
673 -683 0
677 -683 0
680 -683 0
-669 -673 -677 -680 683 0
682 -684 0
-682 684 0
666 -685 0
683 -685 0
-666 -683 685 0
-685 686 0
-667 686 0
685 667 -686 0
77 178 -689 0
-77 178 689 0
77 -178 689 0
-77 -178 -689 0
689 686 -279 0
-689 686 279 0
689 -686 279 0
-689 -686 -279 0
686 -690 0
689 -690 0
-686 -689 690 0
178 -691 0
77 -691 0
-178 -77 691 0
-690 688 0
-691 688 0
690 691 -688 0
78 179 -693 0
-78 179 693 0
78 -179 693 0
-78 -179 -693 0
693 688 -280 0
-693 688 280 0
693 -688 280 0
-693 -688 -280 0
688 -694 0
693 -694 0
-688 -693 694 0
179 -695 0
78 -695 0
-179 -78 695 0
-694 692 0
-695 692 0
694 695 -692 0
79 180 -697 0
-79 180 697 0
79 -180 697 0
-79 -180 -697 0
697 692 -281 0
-697 692 281 0
697 -692 281 0
-697 -692 -281 0
692 -698 0
697 -698 0
-692 -697 698 0
180 -699 0
79 -699 0
-180 -79 699 0
-698 696 0
-699 696 0
698 699 -696 0
80 181 -700 0
-80 181 700 0
80 -181 700 0
-80 -181 -700 0
700 696 -282 0
-700 696 282 0
700 -696 282 0
-700 -696 -282 0
696 -701 0
700 -701 0
-696 -700 701 0
181 -702 0
80 -702 0
-181 -80 702 0
-701 687 0
-702 687 0
701 702 -687 0
689 -703 0
693 -703 0
697 -703 0
700 -703 0
-689 -693 -697 -700 703 0
702 -704 0
-702 704 0
686 -705 0
703 -705 0
-686 -703 705 0
-705 706 0
-687 706 0
705 687 -706 0
81 182 -709 0
-81 182 709 0
81 -182 709 0
-81 -182 -709 0
709 706 -283 0
-709 706 283 0
709 -706 283 0
-709 -706 -283 0
706 -710 0
709 -710 0
-706 -709 710 0
182 -711 0
81 -711 0
-182 -81 711 0
-710 708 0
-711 708 0
710 711 -708 0
82 183 -713 0
-82 183 713 0
82 -183 713 0
-82 -183 -713 0
713 708 -284 0
-713 708 284 0
713 -708 284 0
-713 -708 -284 0
708 -714 0
713 -714 0
-708 -713 714 0
183 -715 0
82 -715 0
-183 -82 715 0
-714 712 0
-715 712 0
714 715 -712 0
83 184 -717 0
-83 184 717 0
83 -184 717 0
-83 -184 -717 0
717 712 -285 0
-717 712 285 0
717 -712 285 0
-717 -712 -285 0
712 -718 0
717 -718 0
-712 -717 718 0
184 -719 0
83 -719 0
-184 -83 719 0
-718 716 0
-719 716 0
718 719 -716 0
84 185 -720 0
-84 185 720 0
84 -185 720 0
-84 -185 -720 0
720 716 -286 0
-720 716 286 0
720 -716 286 0
-720 -716 -286 0
716 -721 0
720 -721 0
-716 -720 721 0
185 -722 0
84 -722 0
-185 -84 722 0
-721 707 0
-722 707 0
721 722 -707 0
709 -723 0
713 -723 0
717 -723 0
720 -723 0
-709 -713 -717 -720 723 0
722 -724 0
-722 724 0
706 -725 0
723 -725 0
-706 -723 725 0
-725 726 0
-707 726 0
725 707 -726 0
85 186 -729 0
-85 186 729 0
85 -186 729 0
-85 -186 -729 0
729 726 -287 0
-729 726 287 0
729 -726 287 0
-729 -726 -287 0
726 -730 0
729 -730 0
-726 -729 730 0
186 -731 0
85 -731 0
-186 -85 731 0
-730 728 0
-731 728 0
730 731 -728 0
86 187 -733 0
-86 187 733 0
86 -187 733 0
-86 -187 -733 0
733 728 -288 0
-733 728 288 0
733 -728 288 0
-733 -728 -288 0
728 -734 0
733 -734 0
-728 -733 734 0
187 -735 0
86 -735 0
-187 -86 735 0
-734 732 0
-735 732 0
734 735 -732 0
87 188 -737 0
-87 188 737 0
87 -188 737 0
-87 -188 -737 0
737 732 -289 0
-737 732 289 0
737 -732 289 0
-737 -732 -289 0
732 -738 0
737 -738 0
-732 -737 738 0
188 -739 0
87 -739 0
-188 -87 739 0
-738 736 0
-739 736 0
738 739 -736 0
88 189 -740 0
-88 189 740 0
88 -189 740 0
-88 -189 -740 0
740 736 -290 0
-740 736 290 0
740 -736 290 0
-740 -736 -290 0
736 -741 0
740 -741 0
-736 -740 741 0
189 -742 0
88 -742 0
-189 -88 742 0
-741 727 0
-742 727 0
741 742 -727 0
729 -743 0
733 -743 0
737 -743 0
740 -743 0
-729 -733 -737 -740 743 0
742 -744 0
-742 744 0
726 -745 0
743 -745 0
-726 -743 745 0
-745 746 0
-727 746 0
745 727 -746 0
89 190 -749 0
-89 190 749 0
89 -190 749 0
-89 -190 -749 0
749 746 -291 0
-749 746 291 0
749 -746 291 0
-749 -746 -291 0
746 -750 0
749 -750 0
-746 -749 750 0
190 -751 0
89 -751 0
-190 -89 751 0
-750 748 0
-751 748 0
750 751 -748 0
90 191 -753 0
-90 191 753 0
90 -191 753 0
-90 -191 -753 0
753 748 -292 0
-753 748 292 0
753 -748 292 0
-753 -748 -292 0
748 -754 0
753 -754 0
-748 -753 754 0
191 -755 0
90 -755 0
-191 -90 755 0
-754 752 0
-755 752 0
754 755 -752 0
91 192 -757 0
-91 192 757 0
91 -192 757 0
-91 -192 -757 0
757 752 -293 0
-757 752 293 0
757 -752 293 0
-757 -752 -293 0
752 -758 0
757 -758 0
-752 -757 758 0
192 -759 0
91 -759 0
-192 -91 759 0
-758 756 0
-759 756 0
758 759 -756 0
92 193 -760 0
-92 193 760 0
92 -193 760 0
-92 -193 -760 0
760 756 -294 0
-760 756 294 0
760 -756 294 0
-760 -756 -294 0
756 -761 0
760 -761 0
-756 -760 761 0
193 -762 0
92 -762 0
-193 -92 762 0
-761 747 0
-762 747 0
761 762 -747 0
749 -763 0
753 -763 0
757 -763 0
760 -763 0
-749 -753 -757 -760 763 0
762 -764 0
-762 764 0
746 -765 0
763 -765 0
-746 -763 765 0
-765 766 0
-747 766 0
765 747 -766 0
93 194 -769 0
-93 194 769 0
93 -194 769 0
-93 -194 -769 0
769 766 -295 0
-769 766 295 0
769 -766 295 0
-769 -766 -295 0
766 -770 0
769 -770 0
-766 -769 770 0
194 -771 0
93 -771 0
-194 -93 771 0
-770 768 0
-771 768 0
770 771 -768 0
94 195 -773 0
-94 195 773 0
94 -195 773 0
-94 -195 -773 0
773 768 -296 0
-773 768 296 0
773 -768 296 0
-773 -768 -296 0
768 -774 0
773 -774 0
-768 -773 774 0
195 -775 0
94 -775 0
-195 -94 775 0
-774 772 0
-775 772 0
774 775 -772 0
95 196 -777 0
-95 196 777 0
95 -196 777 0
-95 -196 -777 0
777 772 -297 0
-777 772 297 0
777 -772 297 0
-777 -772 -297 0
772 -778 0
777 -778 0
-772 -777 778 0
196 -779 0
95 -779 0
-196 -95 779 0
-778 776 0
-779 776 0
778 779 -776 0
96 197 -780 0
-96 197 780 0
96 -197 780 0
-96 -197 -780 0
780 776 -298 0
-780 776 298 0
780 -776 298 0
-780 -776 -298 0
776 -781 0
780 -781 0
-776 -780 781 0
197 -782 0
96 -782 0
-197 -96 782 0
-781 767 0
-782 767 0
781 782 -767 0
769 -783 0
773 -783 0
777 -783 0
780 -783 0
-769 -773 -777 -780 783 0
782 -784 0
-782 784 0
766 -785 0
783 -785 0
-766 -783 785 0
-785 786 0
-767 786 0
785 767 -786 0
97 198 -789 0
-97 198 789 0
97 -198 789 0
-97 -198 -789 0
789 786 -299 0
-789 786 299 0
789 -786 299 0
-789 -786 -299 0
786 -790 0
789 -790 0
-786 -789 790 0
198 -791 0
97 -791 0
-198 -97 791 0
-790 788 0
-791 788 0
790 791 -788 0
98 199 -793 0
-98 199 793 0
98 -199 793 0
-98 -199 -793 0
793 788 -300 0
-793 788 300 0
793 -788 300 0
-793 -788 -300 0
788 -794 0
793 -794 0
-788 -793 794 0
199 -795 0
98 -795 0
-199 -98 795 0
-794 792 0
-795 792 0
794 795 -792 0
99 200 -797 0
-99 200 797 0
99 -200 797 0
-99 -200 -797 0
797 792 -301 0
-797 792 301 0
797 -792 301 0
-797 -792 -301 0
792 -798 0
797 -798 0
-792 -797 798 0
200 -799 0
99 -799 0
-200 -99 799 0
-798 796 0
-799 796 0
798 799 -796 0
100 201 -800 0
-100 201 800 0
100 -201 800 0
-100 -201 -800 0
800 796 -302 0
-800 796 302 0
800 -796 302 0
-800 -796 -302 0
796 -801 0
800 -801 0
-796 -800 801 0
201 -802 0
100 -802 0
-201 -100 802 0
-801 787 0
-802 787 0
801 802 -787 0
789 -803 0
793 -803 0
797 -803 0
800 -803 0
-789 -793 -797 -800 803 0
802 -804 0
-802 804 0
786 -805 0
803 -805 0
-786 -803 805 0
-805 806 0
-787 806 0
805 787 -806 0
101 202 -808 0
-101 202 808 0
101 -202 808 0
-101 -202 -808 0
808 806 -303 0
-808 806 303 0
808 -806 303 0
-808 -806 -303 0
806 -809 0
808 -809 0
-806 -808 809 0
202 -810 0
101 -810 0
-202 -101 810 0
-809 807 0
-810 807 0
809 810 -807 0
808 -811 0
-808 811 0
810 -812 0
-810 812 0
806 -813 0
811 -813 0
-806 -811 813 0
-813 814 0
-807 814 0
813 807 -814 0
814 -304 0
-814 304 0
